JulietBench/Juliet_Based_Patch_Bench/linux/CWE-189-Numeric-Errors/CVE_2011_1759_0f22072ab50cac7983f9660d33974b45184da4f9/Resultsys_oabi_semtimedop_Snippet_patch2EQ.smt2
; benchmark generated from python API
(set-info :status unknown)
(declare-fun R () (_ BitVec 32))
(declare-fun rdi () (_ BitVec 64))
(assert
 (let (($x47 (= (_ bv1 32) R)))
 (let (($x50 (= (_ bv4294967274 32) R)))
 (let ((?x6 ((_ extract 31 0) rdi)))
 (let (($x10 (= (_ bv0 32) ?x6)))
 (let (($x51 (and $x10 $x50)))
 (let (($x36 (and (distinct (_ bv0 32) ?x6) true)))
 (let (($x48 (and $x36 $x47)))
 (let (($x52 (or $x48 $x51)))
 (and $x52 $x47))))))))))
(check-sat)
